\ Model firm
\ LP format - for model browsing. Use MPS format to capture full model detail.
Maximize
  24.79841767307767 output - 5 emission + [ - 0.6375872112626926 output ^2
   + 0.875174422525385 output * emission - 0.4375872112626925 emission ^2
   ] / 2 
Subject To
 R0: - output + emission <= 0
Bounds
End
